1 53 87 98 14 125 19 55 
36 69 15 78 7 22 17 63 
42 37 34 91 2 62 112 27 
96 40 56 90 5 122 116 113 
84 95 12 88 74 92 23 41 
81 28 93 105 83 127 21 97 
85 68 115 124 106 86 44 76 
47 67 54 118 101 71 32 80 
108 114 109 11 50 121 30 70 
117 123 65 48 60 57 43 4 
24 9 110 119 64 59 72 33 
61 128 94 38 46 25 111 66 
45 58 89 39 20 51 107 8 
126 35 52 120 49 26 103 75 
104 6 3 29 82 31 100 79 
77 99 10 18 13 16 73 102 
